nN = 8;
nR = 48;
nH = 1;

a = [[25, 20, 25, 15, 21, 17, 23, 15, 21, 16, 17, 23, 23, 17, 21, 20, 19, 17, 21, 16, 17, 25, 20, 23, 20, 16, 25, 19, 23, 20, 15, 24, 17, 22, 19, 16, 19, 19, 15, 25, 18, 15, 20, 17, 19, 17, 21, 21], [16, 15, 21, 16, 24, 19, 19, 21, 20, 18, 25, 15, 15, 20, 18, 23, 15, 23, 18, 20, 15, 16, 21, 18, 16, 25, 19, 19, 20, 24, 15, 16, 23, 23, 16, 20, 20, 23, 20, 18, 25, 18, 21, 15, 16, 15, 20, 15], [25, 20, 21, 22, 23, 21, 22, 22, 23, 16, 18, 24, 20, 24, 21, 15, 15, 16, 24, 24, 22, 18, 25, 25, 17, 23, 15, 22, 21, 20, 19, 16, 15, 16, 24, 19, 18, 21, 19, 18, 20, 18, 21, 21, 22, 21, 25, 21], [18, 16, 23, 16, 15, 18, 24, 23, 17, 17, 18, 25, 19, 25, 22, 19, 19, 17, 20, 19, 16, 19, 22, 25, 22, 23, 25, 22, 17, 23, 19, 24, 17, 23, 18, 18, 16, 24, 24, 22, 20, 22, 21, 16, 18, 18, 16, 20], [23, 17, 23, 20, 19, 20, 17, 16, 19, 24, 15, 23, 18, 16, 23, 15, 16, 16, 15, 16, 25, 15, 15, 15, 15, 24, 22, 17, 24, 20, 20, 17, 16, 17, 25, 25, 24, 18, 24, 18, 15, 21, 16, 21, 15, 21, 24, 25], [25, 24, 23, 17, 15, 15, 19, 16, 18, 25, 17, 18, 17, 20, 23, 18, 20, 22, 25, 25, 22, 20, 16, 25, 22, 24, 18, 15, 24, 24, 24, 25, 17, 20, 23, 20, 18, 23, 20, 21, 15, 23, 16, 24, 25, 21, 16, 17], [25, 23, 20, 15, 24, 22, 22, 23, 22, 21, 24, 23, 16, 24, 23, 16, 17, 23, 15, 20, 15, 17, 21, 19, 23, 19, 19, 20, 21, 17, 19, 18, 22, 17, 23, 15, 21, 21, 20, 15, 22, 24, 25, 22, 21, 17, 20, 23], [25, 20, 20, 19, 16, 17, 25, 24, 21, 25, 25, 20, 22, 15, 21, 17, 24, 17, 24, 15, 17, 20, 21, 22, 24, 19, 22, 24, 22, 23, 21, 16, 22, 15, 15, 15, 20, 22, 19, 22, 23, 24, 16, 23, 16, 25, 17, 25]];
c = [[[0, 0, 0, 0, 0, 0, 0, 0, 0, 0, 0, 0, 0, 0, 0, 0, 0, 0, 0, 0, 0, 0, 0, 0, 0, 0, 0, 0, 0, 0, 0, 0, 0, 0, 0, 0, 0, 0, 0, 0, 0, 0, 0, 0, 0, 0, 0, 0], [37, 50, 37, 49, 41, 47, 37, 31, 37, 37, 45, 41, 39, 46, 35, 35, 41, 49, 31, 33, 50, 34, 32, 36, 49, 32, 45, 32, 48, 30, 49, 38, 46, 35, 49, 37, 46, 39, 41, 34, 30, 46, 31, 43, 46, 42, 49, 43], [45, 32, 44, 44, 43, 32, 39, 45, 38, 37, 49, 48, 40, 30, 40, 45, 37, 39, 30, 45, 35, 36, 30, 45, 35, 48, 45, 44, 48, 42, 45, 32, 49, 34, 43, 30, 47, 37, 49, 40, 50, 42, 50, 50, 35, 50, 49, 48], [39, 37, 48, 49, 36, 37, 46, 32, 30, 49, 32, 41, 39, 49, 31, 30, 35, 44, 31, 36, 38, 41, 33, 37, 35, 49, 31, 31, 31, 36, 38, 46, 30, 38, 37, 34, 31, 35, 37, 32, 48, 46, 43, 30, 37, 37, 40, 39], [33, 33, 39, 44, 34, 36, 32, 39, 39, 50, 33, 47, 49, 37, 48, 50, 37, 36, 47, 39, 49, 36, 37, 43, 46, 31, 37, 47, 43, 37, 47, 34, 42, 39, 44, 40, 32, 41, 49, 48, 35, 43, 48, 41, 47, 32, 40, 31], [34, 44, 31, 32, 45, 31, 49, 35, 35, 39, 48, 33, 42, 37, 40, 45, 45, 37, 41, 35, 47, 37, 32, 44, 31, 42, 39, 43, 36, 37, 42, 49, 49, 36, 42, 49, 41, 30, 35, 39, 44, 35, 44, 49, 43, 47, 41, 48], [36, 48, 32, 35, 31, 50, 33, 50, 39, 33, 35, 41, 40, 47, 46, 39, 45, 36, 37, 50, 46, 39, 39, 36, 42, 34, 32, 49, 41, 32, 40, 36, 41, 31, 39, 31, 37, 31, 36, 31, 32, 44, 33, 42, 48, 37, 44, 41], [37, 38, 30, 33, 42, 35, 35, 50, 30, 44, 38, 36, 31, 50, 36, 43, 45, 30, 47, 46, 49, 46, 41, 34, 38, 44, 39, 49, 40, 34, 44, 47, 50, 36, 49, 40, 33, 43, 49, 36, 35, 34, 40, 47, 33, 37, 38, 36]], [[0, 0, 0, 0, 0, 0, 0, 0, 0, 0, 0, 0, 0, 0, 0, 0, 0, 0, 0, 0, 0, 0, 0, 0, 0, 0, 0, 0, 0, 0, 0, 0, 0, 0, 0, 0, 0, 0, 0, 0, 0, 0, 0, 0, 0, 0, 0, 0], [0, 0, 0, 0, 0, 0, 0, 0, 0, 0, 0, 0, 0, 0, 0, 0, 0, 0, 0, 0, 0, 0, 0, 0, 0, 0, 0, 0, 0, 0, 0, 0, 0, 0, 0, 0, 0, 0, 0, 0, 0, 0, 0, 0, 0, 0, 0, 0], [37, 50, 38, 46, 50, 47, 33, 48, 34, 41, 40, 42, 34, 42, 39, 32, 38, 39, 47, 49, 50, 47, 47, 38, 38, 39, 48, 30, 45, 35, 32, 41, 47, 39, 30, 44, 45, 37, 39, 45, 41, 48, 31, 38, 39, 36, 32, 30], [35, 46, 45, 37, 33, 36, 40, 42, 33, 37, 32, 35, 41, 50, 40, 32, 40, 39, 38, 34, 37, 40, 30, 36, 50, 48, 39, 45, 38, 34, 35, 49, 40, 31, 40, 45, 46, 42, 47, 49, 40, 30, 35, 41, 31, 39, 49, 41], [40, 33, 46, 41, 38, 38, 33, 43, 41, 46, 31, 38, 45, 38, 38, 30, 33, 46, 35, 48, 49, 47, 48, 40, 32, 34, 34, 42, 38, 41, 33, 35, 49, 34, 48, 45, 33, 43, 33, 34, 44, 46, 35, 46, 50, 47, 43, 32], [37, 34, 30, 35, 34, 34, 43, 40, 44, 37, 30, 30, 30, 46, 32, 38, 36, 30, 48, 47, 49, 42, 44, 30, 46, 44, 35, 35, 49, 31, 49, 47, 46, 45, 42, 43, 43, 37, 35, 35, 48, 33, 30, 47, 43, 44, 38, 35], [33, 46, 44, 39, 46, 50, 45, 33, 42, 46, 40, 49, 40, 44, 31, 31, 43, 41, 49, 47, 37, 46, 44, 43, 48, 36, 35, 35, 46, 42, 43, 35, 48, 47, 45, 38, 31, 32, 38, 42, 43, 49, 50, 33, 44, 42, 42, 31], [31, 50, 47, 30, 47, 44, 30, 47, 39, 39, 42, 35, 48, 50, 37, 37, 39, 45, 48, 50, 33, 30, 49, 34, 36, 33, 35, 44, 33, 42, 31, 47, 39, 46, 46, 36, 33, 47, 50, 35, 39, 41, 39, 42, 49, 46, 44, 39]], [[0, 0, 0, 0, 0, 0, 0, 0, 0, 0, 0, 0, 0, 0, 0, 0, 0, 0, 0, 0, 0, 0, 0, 0, 0, 0, 0, 0, 0, 0, 0, 0, 0, 0, 0, 0, 0, 0, 0, 0, 0, 0, 0, 0, 0, 0, 0, 0], [0, 0, 0, 0, 0, 0, 0, 0, 0, 0, 0, 0, 0, 0, 0, 0, 0, 0, 0, 0, 0, 0, 0, 0, 0, 0, 0, 0, 0, 0, 0, 0, 0, 0, 0, 0, 0, 0, 0, 0, 0, 0, 0, 0, 0, 0, 0, 0], [0, 0, 0, 0, 0, 0, 0, 0, 0, 0, 0, 0, 0, 0, 0, 0, 0, 0, 0, 0, 0, 0, 0, 0, 0, 0, 0, 0, 0, 0, 0, 0, 0, 0, 0, 0, 0, 0, 0, 0, 0, 0, 0, 0, 0, 0, 0, 0], [31, 46, 40, 31, 48, 34, 41, 45, 50, 31, 31, 42, 41, 38, 37, 42, 33, 39, 35, 31, 43, 50, 34, 42, 31, 43, 42, 49, 48, 44, 33, 46, 40, 47, 39, 36, 50, 34, 33, 44, 45, 40, 33, 41, 39, 44, 30, 42], [44, 47, 42, 34, 47, 34, 37, 38, 35, 36, 41, 46, 36, 34, 40, 48, 40, 40, 45, 46, 40, 33, 49, 48, 48, 37, 43, 39, 40, 45, 40, 49, 30, 35, 49, 41, 47, 47, 44, 41, 30, 31, 48, 50, 47, 32, 45, 50], [49, 48, 43, 42, 34, 42, 48, 31, 31, 44, 42, 33, 31, 30, 32, 41, 50, 30, 34, 36, 30, 35, 42, 35, 43, 38, 35, 38, 34, 49, 43, 30, 41, 44, 39, 32, 46, 38, 48, 34, 40, 40, 40, 30, 41, 45, 35, 37], [42, 39, 33, 50, 49, 34, 50, 33, 40, 44, 42, 39, 37, 31, 44, 35, 30, 33, 38, 31, 34, 49, 30, 30, 39, 45, 42, 34, 33, 43, 47, 50, 34, 43, 44, 32, 34, 32, 38, 44, 47, 47, 42, 40, 46, 36, 32, 37], [41, 30, 49, 37, 38, 39, 35, 41, 49, 38, 31, 30, 36, 38, 36, 32, 32, 47, 45, 35, 44, 41, 40, 32, 38, 44, 42, 37, 50, 47, 47, 30, 33, 39, 42, 32, 43, 50, 36, 48, 32, 50, 38, 35, 37, 49, 49, 37]], [[0, 0, 0, 0, 0, 0, 0, 0, 0, 0, 0, 0, 0, 0, 0, 0, 0, 0, 0, 0, 0, 0, 0, 0, 0, 0, 0, 0, 0, 0, 0, 0, 0, 0, 0, 0, 0, 0, 0, 0, 0, 0, 0, 0, 0, 0, 0, 0], [0, 0, 0, 0, 0, 0, 0, 0, 0, 0, 0, 0, 0, 0, 0, 0, 0, 0, 0, 0, 0, 0, 0, 0, 0, 0, 0, 0, 0, 0, 0, 0, 0, 0, 0, 0, 0, 0, 0, 0, 0, 0, 0, 0, 0, 0, 0, 0], [0, 0, 0, 0, 0, 0, 0, 0, 0, 0, 0, 0, 0, 0, 0, 0, 0, 0, 0, 0, 0, 0, 0, 0, 0, 0, 0, 0, 0, 0, 0, 0, 0, 0, 0, 0, 0, 0, 0, 0, 0, 0, 0, 0, 0, 0, 0, 0], [0, 0, 0, 0, 0, 0, 0, 0, 0, 0, 0, 0, 0, 0, 0, 0, 0, 0, 0, 0, 0, 0, 0, 0, 0, 0, 0, 0, 0, 0, 0, 0, 0, 0, 0, 0, 0, 0, 0, 0, 0, 0, 0, 0, 0, 0, 0, 0], [43, 38, 38, 35, 37, 31, 41, 43, 35, 50, 37, 42, 40, 49, 48, 30, 36, 45, 47, 38, 41, 50, 31, 35, 42, 49, 33, 35, 38, 40, 40, 40, 38, 34, 49, 36, 41, 42, 35, 39, 32, 44, 35, 45, 50, 42, 33, 31], [30, 40, 32, 46, 37, 49, 45, 38, 49, 49, 37, 31, 35, 32, 37, 32, 47, 32, 43, 33, 43, 48, 33, 50, 46, 32, 48, 38, 41, 50, 39, 34, 36, 47, 50, 46, 45, 35, 47, 37, 46, 34, 48, 46, 48, 44, 49, 33], [35, 36, 40, 34, 33, 31, 49, 37, 41, 47, 34, 48, 50, 49, 49, 34, 34, 50, 31, 35, 37, 47, 33, 40, 47, 49, 34, 37, 31, 39, 50, 42, 45, 42, 42, 44, 40, 48, 32, 30, 45, 33, 33, 49, 32, 32, 34, 46], [30, 46, 44, 48, 45, 46, 41, 35, 50, 35, 48, 34, 50, 49, 37, 33, 36, 40, 44, 38, 33, 34, 30, 46, 34, 38, 43, 34, 30, 39, 41, 50, 37, 35, 46, 41, 44, 41, 44, 39, 42, 38, 43, 37, 30, 30, 38, 41]], [[0, 0, 0, 0, 0, 0, 0, 0, 0, 0, 0, 0, 0, 0, 0, 0, 0, 0, 0, 0, 0, 0, 0, 0, 0, 0, 0, 0, 0, 0, 0, 0, 0, 0, 0, 0, 0, 0, 0, 0, 0, 0, 0, 0, 0, 0, 0, 0], [0, 0, 0, 0, 0, 0, 0, 0, 0, 0, 0, 0, 0, 0, 0, 0, 0, 0, 0, 0, 0, 0, 0, 0, 0, 0, 0, 0, 0, 0, 0, 0, 0, 0, 0, 0, 0, 0, 0, 0, 0, 0, 0, 0, 0, 0, 0, 0], [0, 0, 0, 0, 0, 0, 0, 0, 0, 0, 0, 0, 0, 0, 0, 0, 0, 0, 0, 0, 0, 0, 0, 0, 0, 0, 0, 0, 0, 0, 0, 0, 0, 0, 0, 0, 0, 0, 0, 0, 0, 0, 0, 0, 0, 0, 0, 0], [0, 0, 0, 0, 0, 0, 0, 0, 0, 0, 0, 0, 0, 0, 0, 0, 0, 0, 0, 0, 0, 0, 0, 0, 0, 0, 0, 0, 0, 0, 0, 0, 0, 0, 0, 0, 0, 0, 0, 0, 0, 0, 0, 0, 0, 0, 0, 0], [0, 0, 0, 0, 0, 0, 0, 0, 0, 0, 0, 0, 0, 0, 0, 0, 0, 0, 0, 0, 0, 0, 0, 0, 0, 0, 0, 0, 0, 0, 0, 0, 0, 0, 0, 0, 0, 0, 0, 0, 0, 0, 0, 0, 0, 0, 0, 0], [39, 42, 43, 49, 33, 44, 34, 30, 44, 35, 40, 36, 37, 50, 50, 40, 50, 48, 42, 45, 31, 48, 42, 35, 36, 40, 30, 50, 33, 50, 48, 34, 43, 40, 48, 40, 50, 50, 41, 46, 49, 43, 44, 34, 32, 36, 41, 38], [46, 46, 39, 37, 32, 30, 41, 42, 40, 49, 41, 31, 44, 38, 42, 33, 33, 50, 43, 44, 37, 42, 35, 48, 44, 37, 36, 33, 35, 31, 38, 35, 32, 47, 35, 43, 49, 44, 31, 31, 49, 43, 49, 31, 30, 43, 45, 44], [48, 36, 39, 39, 37, 43, 33, 38, 47, 34, 33, 30, 37, 30, 42, 47, 41, 32, 49, 48, 36, 47, 34, 30, 32, 48, 46, 40, 36, 38, 46, 47, 46, 42, 42, 47, 31, 50, 44, 42, 46, 47, 46, 44, 46, 42, 39, 43]], [[0, 0, 0, 0, 0, 0, 0, 0, 0, 0, 0, 0, 0, 0, 0, 0, 0, 0, 0, 0, 0, 0, 0, 0, 0, 0, 0, 0, 0, 0, 0, 0, 0, 0, 0, 0, 0, 0, 0, 0, 0, 0, 0, 0, 0, 0, 0, 0], [0, 0, 0, 0, 0, 0, 0, 0, 0, 0, 0, 0, 0, 0, 0, 0, 0, 0, 0, 0, 0, 0, 0, 0, 0, 0, 0, 0, 0, 0, 0, 0, 0, 0, 0, 0, 0, 0, 0, 0, 0, 0, 0, 0, 0, 0, 0, 0], [0, 0, 0, 0, 0, 0, 0, 0, 0, 0, 0, 0, 0, 0, 0, 0, 0, 0, 0, 0, 0, 0, 0, 0, 0, 0, 0, 0, 0, 0, 0, 0, 0, 0, 0, 0, 0, 0, 0, 0, 0, 0, 0, 0, 0, 0, 0, 0], [0, 0, 0, 0, 0, 0, 0, 0, 0, 0, 0, 0, 0, 0, 0, 0, 0, 0, 0, 0, 0, 0, 0, 0, 0, 0, 0, 0, 0, 0, 0, 0, 0, 0, 0, 0, 0, 0, 0, 0, 0, 0, 0, 0, 0, 0, 0, 0], [0, 0, 0, 0, 0, 0, 0, 0, 0, 0, 0, 0, 0, 0, 0, 0, 0, 0, 0, 0, 0, 0, 0, 0, 0, 0, 0, 0, 0, 0, 0, 0, 0, 0, 0, 0, 0, 0, 0, 0, 0, 0, 0, 0, 0, 0, 0, 0], [0, 0, 0, 0, 0, 0, 0, 0, 0, 0, 0, 0, 0, 0, 0, 0, 0, 0, 0, 0, 0, 0, 0, 0, 0, 0, 0, 0, 0, 0, 0, 0, 0, 0, 0, 0, 0, 0, 0, 0, 0, 0, 0, 0, 0, 0, 0, 0], [41, 36, 38, 50, 37, 35, 50, 42, 41, 44, 38, 48, 44, 35, 37, 43, 47, 39, 40, 31, 31, 40, 34, 43, 45, 44, 30, 50, 48, 37, 30, 50, 31, 48, 44, 36, 30, 44, 37, 45, 42, 43, 36, 38, 42, 48, 48, 42], [43, 40, 41, 47, 43, 30, 45, 40, 49, 34, 34, 39, 49, 31, 44, 43, 48, 40, 37, 35, 49, 45, 47, 41, 33, 31, 36, 49, 48, 49, 31, 49, 39, 35, 38, 36, 36, 34, 34, 41, 39, 31, 35, 33, 30, 42, 37, 39]], [[0, 0, 0, 0, 0, 0, 0, 0, 0, 0, 0, 0, 0, 0, 0, 0, 0, 0, 0, 0, 0, 0, 0, 0, 0, 0, 0, 0, 0, 0, 0, 0, 0, 0, 0, 0, 0, 0, 0, 0, 0, 0, 0, 0, 0, 0, 0, 0], [0, 0, 0, 0, 0, 0, 0, 0, 0, 0, 0, 0, 0, 0, 0, 0, 0, 0, 0, 0, 0, 0, 0, 0, 0, 0, 0, 0, 0, 0, 0, 0, 0, 0, 0, 0, 0, 0, 0, 0, 0, 0, 0, 0, 0, 0, 0, 0], [0, 0, 0, 0, 0, 0, 0, 0, 0, 0, 0, 0, 0, 0, 0, 0, 0, 0, 0, 0, 0, 0, 0, 0, 0, 0, 0, 0, 0, 0, 0, 0, 0, 0, 0, 0, 0, 0, 0, 0, 0, 0, 0, 0, 0, 0, 0, 0], [0, 0, 0, 0, 0, 0, 0, 0, 0, 0, 0, 0, 0, 0, 0, 0, 0, 0, 0, 0, 0, 0, 0, 0, 0, 0, 0, 0, 0, 0, 0, 0, 0, 0, 0, 0, 0, 0, 0, 0, 0, 0, 0, 0, 0, 0, 0, 0], [0, 0, 0, 0, 0, 0, 0, 0, 0, 0, 0, 0, 0, 0, 0, 0, 0, 0, 0, 0, 0, 0, 0, 0, 0, 0, 0, 0, 0, 0, 0, 0, 0, 0, 0, 0, 0, 0, 0, 0, 0, 0, 0, 0, 0, 0, 0, 0], [0, 0, 0, 0, 0, 0, 0, 0, 0, 0, 0, 0, 0, 0, 0, 0, 0, 0, 0, 0, 0, 0, 0, 0, 0, 0, 0, 0, 0, 0, 0, 0, 0, 0, 0, 0, 0, 0, 0, 0, 0, 0, 0, 0, 0, 0, 0, 0], [0, 0, 0, 0, 0, 0, 0, 0, 0, 0, 0, 0, 0, 0, 0, 0, 0, 0, 0, 0, 0, 0, 0, 0, 0, 0, 0, 0, 0, 0, 0, 0, 0, 0, 0, 0, 0, 0, 0, 0, 0, 0, 0, 0, 0, 0, 0, 0], [48, 40, 37, 50, 44, 36, 35, 34, 47, 36, 44, 32, 32, 47, 38, 41, 37, 35, 48, 33, 31, 43, 46, 34, 41, 50, 48, 31, 49, 46, 31, 42, 36, 30, 47, 34, 45, 38, 38, 43, 38, 48, 30, 39, 46, 39, 41, 33]], [[0, 0, 0, 0, 0, 0, 0, 0, 0, 0, 0, 0, 0, 0, 0, 0, 0, 0, 0, 0, 0, 0, 0, 0, 0, 0, 0, 0, 0, 0, 0, 0, 0, 0, 0, 0, 0, 0, 0, 0, 0, 0, 0, 0, 0, 0, 0, 0], [0, 0, 0, 0, 0, 0, 0, 0, 0, 0, 0, 0, 0, 0, 0, 0, 0, 0, 0, 0, 0, 0, 0, 0, 0, 0, 0, 0, 0, 0, 0, 0, 0, 0, 0, 0, 0, 0, 0, 0, 0, 0, 0, 0, 0, 0, 0, 0], [0, 0, 0, 0, 0, 0, 0, 0, 0, 0, 0, 0, 0, 0, 0, 0, 0, 0, 0, 0, 0, 0, 0, 0, 0, 0, 0, 0, 0, 0, 0, 0, 0, 0, 0, 0, 0, 0, 0, 0, 0, 0, 0, 0, 0, 0, 0, 0], [0, 0, 0, 0, 0, 0, 0, 0, 0, 0, 0, 0, 0, 0, 0, 0, 0, 0, 0, 0, 0, 0, 0, 0, 0, 0, 0, 0, 0, 0, 0, 0, 0, 0, 0, 0, 0, 0, 0, 0, 0, 0, 0, 0, 0, 0, 0, 0], [0, 0, 0, 0, 0, 0, 0, 0, 0, 0, 0, 0, 0, 0, 0, 0, 0, 0, 0, 0, 0, 0, 0, 0, 0, 0, 0, 0, 0, 0, 0, 0, 0, 0, 0, 0, 0, 0, 0, 0, 0, 0, 0, 0, 0, 0, 0, 0], [0, 0, 0, 0, 0, 0, 0, 0, 0, 0, 0, 0, 0, 0, 0, 0, 0, 0, 0, 0, 0, 0, 0, 0, 0, 0, 0, 0, 0, 0, 0, 0, 0, 0, 0, 0, 0, 0, 0, 0, 0, 0, 0, 0, 0, 0, 0, 0], [0, 0, 0, 0, 0, 0, 0, 0, 0, 0, 0, 0, 0, 0, 0, 0, 0, 0, 0, 0, 0, 0, 0, 0, 0, 0, 0, 0, 0, 0, 0, 0, 0, 0, 0, 0, 0, 0, 0, 0, 0, 0, 0, 0, 0, 0, 0, 0], [0, 0, 0, 0, 0, 0, 0, 0, 0, 0, 0, 0, 0, 0, 0, 0, 0, 0, 0, 0, 0, 0, 0, 0, 0, 0, 0, 0, 0, 0, 0, 0, 0, 0, 0, 0, 0, 0, 0, 0, 0, 0, 0, 0, 0, 0, 0, 0]]];

q = [[[12], [9], [15], [14], [8], [15], [5], [9], [7], [7], [10], [6], [13], [12], [15], [10], [11], [9], [11], [16], [15], [14], [5], [16], [7], [5], [11], [16], [15], [6], [11], [9], [7], [8], [6], [10], [7], [10], [13], [10], [10], [13], [7], [12], [14], [5], [5], [6]], [[16], [16], [6], [9], [16], [7], [9], [5], [11], [9], [11], [9], [13], [5], [16], [16], [9], [8], [11], [13], [7], [10], [7], [15], [11], [5], [10], [14], [13], [13], [11], [7], [11], [14], [11], [16], [14], [9], [9], [9], [15], [7], [11], [15], [5], [6], [10], [7]], [[13], [12], [13], [13], [10], [9], [7], [7], [7], [12], [5], [15], [12], [6], [10], [12], [13], [8], [12], [7], [12], [9], [9], [15], [5], [12], [12], [5], [16], [16], [15], [14], [11], [5], [13], [6], [11], [13], [6], [14], [13], [7], [11], [10], [9], [16], [10], [10]], [[8], [13], [6], [7], [11], [10], [11], [8], [9], [13], [9], [13], [16], [8], [13], [12], [16], [12], [16], [7], [16], [15], [12], [5], [12], [13], [6], [10], [15], [11], [7], [10], [15], [9], [15], [12], [13], [15], [5], [6], [14], [9], [15], [14], [10], [13], [12], [8]], [[9], [11], [12], [9], [14], [10], [15], [9], [7], [16], [9], [7], [13], [10], [6], [14], [12], [16], [8], [14], [11], [9], [8], [13], [7], [16], [13], [11], [10], [6], [8], [5], [12], [11], [6], [14], [14], [16], [9], [15], [14], [11], [9], [7], [6], [9], [14], [9]], [[5], [7], [10], [10], [15], [15], [14], [11], [10], [12], [5], [8], [8], [12], [15], [12], [12], [16], [9], [9], [5], [15], [6], [11], [11], [11], [8], [5], [14], [6], [10], [14], [16], [14], [15], [14], [13], [15], [5], [16], [6], [11], [8], [10], [5], [6], [7], [7]], [[13], [12], [9], [10], [15], [9], [6], [15], [14], [10], [9], [10], [9], [10], [12], [8], [10], [10], [13], [5], [5], [6], [8], [15], [8], [14], [8], [14], [8], [9], [13], [5], [7], [7], [10], [12], [10], [8], [13], [6], [10], [9], [12], [12], [11], [10], [10], [16]], [[16], [15], [5], [12], [11], [13], [11], [9], [6], [7], [10], [9], [13], [9], [14], [5], [9], [11], [6], [7], [5], [10], [16], [5], [8], [10], [15], [7], [5], [16], [7], [14], [11], [16], [7], [6], [11], [14], [16], [5], [6], [8], [11], [12], [12], [10], [14], [11]]];
Q = [[48], [50], [50], [53], [51], [49], [48], [48]];
